Route #1: 8 13 26 34 41 52 53 48 54 61 75 79 65 74 87 100 93 94 88 76 80 95 96 97 81 66 62 55 43 42 35 27 14 1 2 9 20 28 44 36 49 56 67 77 68 63 69 58 57 50 45 37 38 31 30 29 22 21 10 15 16 3 17 18 4 5 19 23 32 46 51 71 64 70 84 83 82 89 90 91 98 78 92 99 85 86 73 72 59 60 47 25 33 40 39 24 11 6 12 7
Cost 45016
